S = 5;
start = [|0,0,0,0,8,0,0,1,0,0,0,0,0,24,0,0,0,23,0,0,11,0,0,15,21|
25,24,14,2,0,0,0,0,0,0,0,0,0,0,11,10,15,0,0,16,0,0,0,0,0|
0,0,0,17,0,0,8,0,0,23,0,6,0,14,0,0,0,0,21,0,0,0,0,4,0|
0,0,0,0,0,0,0,13,18,0,21,0,0,17,0,0,0,0,0,0,0,0,0,0,12|
0,4,0,0,0,0,2,19,0,0,0,0,8,0,0,0,0,0,0,0,0,0,0,0,0|
10,19,0,0,0,0,0,7,15,0,0,25,1,0,0,0,0,18,0,0,0,0,13,0,20|
0,0,0,13,0,0,0,0,0,0,0,0,0,0,0,0,0,0,0,0,0,21,0,0,0|
0,0,0,0,2,0,0,0,10,0,0,0,0,0,0,0,8,20,0,1,0,0,0,0,0|
0,0,0,0,0,0,0,0,0,0,0,0,0,0,0,0,11,0,0,0,0,0,0,0,0|
0,0,0,0,0,22,23,20,0,0,0,19,0,0,8,17,21,0,0,0,0,0,0,0,25|
0,0,0,5,0,0,0,0,23,0,24,13,0,0,0,2,0,3,0,20,9,0,15,0,0|
0,0,0,0,0,7,0,0,0,0,3,0,0,0,17,0,0,0,0,0,20,0,0,12,0|
0,0,0,0,0,0,0,0,0,0,0,11,20,5,0,0,0,0,24,0,0,0,0,0,0|
17,2,0,0,6,0,0,0,19,0,0,18,0,0,10,14,0,25,0,15,0,5,0,0,16|
0,0,1,0,0,0,0,0,5,0,0,0,0,0,0,0,0,0,0,0,3,0,0,13,0|
0,0,0,0,14,0,18,9,0,0,0,7,0,0,12,0,0,0,0,0,0,8,0,0,0|
0,0,0,0,23,8,0,0,0,0,20,0,0,22,0,0,0,0,1,0,0,14,0,0,0|
0,0,5,0,15,19,0,0,0,0,0,0,16,0,0,0,0,21,0,14,0,0,4,0,0|
0,12,0,0,0,0,0,24,0,0,15,0,11,0,0,0,0,0,0,0,0,0,0,0,23|
0,0,0,0,13,0,6,0,0,0,2,0,0,19,0,18,3,0,0,11,5,0,0,0,0|
12,6,0,0,5,23,9,0,0,0,0,0,3,18,0,0,0,0,0,0,0,0,0,14,0|
0,21,0,0,0,0,0,0,0,15,0,0,0,0,0,0,0,0,0,19,0,7,0,0,0|
0,23,0,0,0,0,0,0,0,21,14,0,0,0,0,0,0,0,12,0,0,0,0,0,0|
0,0,2,0,0,0,0,10,4,0,0,0,0,0,0,0,13,0,0,0,18,0,0,0,0|
0,0,0,0,0,0,0,0,0,0,0,1,0,0,25,24,0,0,0,21,0,0,9,0,4|];